(set-logic SLIA)
(define-fun succ ((X Int) ) Int (+ 1 X ))
(define-fun pred ((X Int) ) Int (+ -1 X )) 
(define-fun firstidx ((X String) (Y String) ) Int (str.indexof X Y 1 )) 
(define-fun idxplus ((X String) (Y String) (P Int) (Q Int)) Int (+ (str.indexof X Y P) Q)) 
(define-fun idxminus ((X String) (Y String) (P Int) (Q Int)) Int (- (str.indexof X Y P) Q)) 
(define-fun getfirst ((X String)) String (str.substr X 0 1))
(define-fun getprefix ((X String) (Y Int)) String (str.substr X 0 Y))
(define-fun getsuffix ((X String) (Y Int)) String (str.substr X Y (str.len X)))
(define-fun getprefixone ((X String) (Y Int)) String (str.substr X 1 Y))
(define-fun doubleconcat ((X String) (Y String) (Z String)) String (str.++ (str.++ X Y) Z))
(define-fun sesuffix ((X String) (Y String) (P Int) (Q Int) (R Int)) String (str.substr X (+ (str.indexof X Y P) Q) R))
(define-fun lasuffix ((X String) (Y Int) (Z Int)) String (str.substr X (- Y 1) Z))
(define-fun subsconcat ((X String) (Y Int) (P Int) (Q Int)) String (str.++ (str.substr X 0 Y) (str.substr X P Q)))
(define-fun rpself ((X String) (Y String) (N Int) (M Int)) String (str.replace X (str.substr X N M) Y))
(define-fun doublerp ((X String) (Y String) (Z String) (P String) (Q String)) String (str.replace (str.replace X Y Z) P Q ))
(synth-fun f ((_arg_0 String)) String 
 ( (Start String (ntString)) 
 (ntString String (
	_arg_0	"" " " "BRD" "DRS" "LDS" "Branding" "Direct Response" "Leads"
	(getfirst ntString)
	(getsuffix ntString ntInt)
	(doublerp ntString ntString ntString ntString ntString)
	(str.++ ntString ntString)
	(ite ntBool ntString ntString)
))
 (ntInt Int (
	1 0 -1
	(succ ntInt)
	(pred ntInt)
	(firstidx ntString ntString)
	(+ ntInt ntInt)
	(- ntInt ntInt)
	(str.to.int ntString)
	(ite ntBool ntInt ntInt)
	(str.indexof ntString ntString ntInt)
))
 (ntBool Bool (
	true false
))
))
(constraint (= (f "Adf_ROCLeader_BAN_728x90_CPM_STD _BRD _NRT_DCK") "Adf_ROCLeader_BAN_728x90_CPM_STD _Branding _NRT_DCK"))
(constraint (= (f "MMC_ContextualLarRec_BAN_336x280_CPM_STD _LDS _RTG_DCK") "MMC_ContextualLarRec_BAN_336x280_CPM_STD _Leads _RTG_DCK"))
(constraint (= (f "Adf_ROC_DLBD_728x90_CPM_STD_DRS_NRT_NOR_DCK") "Adf_ROC_DLBD_728x90_CPM_STD_Direct Response_NRT_NOR_DCK"))
(check-synth)
